c FILE /home/rafael/Documents/HappySet/MIHS/inputs/happygen/output/graph_random_k3_p0.3_v100_20241127_083608.txt
c SOURCE This is a random graph formed for the happy graph colouring problem.
c DESCRIPTION It was generated using the problem generator of Rhyd Lewis
c
c GRAPH STATS
c Seed                             = -661489744
c Number of Nodes                  = 100
c Edge probability defined by user = 0.5
c Number of colours k              = 3
c Number of pre-assignments        = 30
c Actual density                   = 0.5
c 
c The degrees of nodes 1 to 100, respectively, are as follows 
c [62, 62, 61, 59, 58, 58, 57, 57, 57, 56, 56, 56, 55, 55, 55, 55, 54, 54, 54, 53, 53, 53, 53, 53, 53, 53, 
c  52, 52, 52, 52, 52, 52, 52, 51, 51, 51, 51, 51, 51, 51, 50, 50, 50, 50, 50, 50, 50, 50, 50, 49, 49, 
c  49, 49, 49, 49, 49, 49, 49, 49, 49, 48, 48, 48, 48, 48, 48, 48, 47, 47, 47, 47, 47, 47, 46, 46, 46, 
c  46, 45, 45, 45, 45, 45, 45, 45, 45, 44, 44, 44, 44, 44, 43, 42, 42, 41, 41, 40, 40, 39, 39, 39] 
c  
p edge 100 2475 3
e 1 2
e 1 4
e 1 7
e 1 8
e 1 10
e 1 12
e 1 13
e 1 14
e 1 15
e 1 16
e 1 17
e 1 18
e 1 19
e 1 20
e 1 22
e 1 23
e 1 24
e 1 25
e 1 26
e 1 27
e 1 29
e 1 31
e 1 32
e 1 33
e 1 36
e 1 39
e 1 41
e 1 43
e 1 44
e 1 46
e 1 48
e 1 49
e 1 50
e 1 53
e 1 54
e 1 56
e 1 57
e 1 58
e 1 61
e 1 62
e 1 65
e 1 66
e 1 68
e 1 71
e 1 74
e 1 75
e 1 76
e 1 80
e 1 82
e 1 83
e 1 84
e 1 85
e 1 86
e 1 87
e 1 89
e 1 91
e 1 92
e 1 93
e 1 94
e 1 95
e 1 96
e 1 100
e 2 4
e 2 5
e 2 6
e 2 7
e 2 8
e 2 9
e 2 10
e 2 12
e 2 14
e 2 15
e 2 17
e 2 18
e 2 20
e 2 21
e 2 22
e 2 24
e 2 26
e 2 27
e 2 29
e 2 30
e 2 31
e 2 32
e 2 33
e 2 34
e 2 36
e 2 37
e 2 38
e 2 39
e 2 40
e 2 41
e 2 44
e 2 45
e 2 46
e 2 47
e 2 48
e 2 49
e 2 52
e 2 54
e 2 56
e 2 58
e 2 59
e 2 60
e 2 61
e 2 64
e 2 65
e 2 66
e 2 67
e 2 70
e 2 71
e 2 74
e 2 75
e 2 76
e 2 78
e 2 82
e 2 84
e 2 90
e 2 91
e 2 95
e 2 96
e 2 98
e 2 99
e 3 4
e 3 5
e 3 6
e 3 7
e 3 8
e 3 9
e 3 10
e 3 11
e 3 12
e 3 13
e 3 14
e 3 15
e 3 16
e 3 17
e 3 18
e 3 19
e 3 20
e 3 22
e 3 24
e 3 25
e 3 27
e 3 31
e 3 32
e 3 33
e 3 34
e 3 35
e 3 36
e 3 37
e 3 40
e 3 41
e 3 43
e 3 44
e 3 48
e 3 49
e 3 51
e 3 53
e 3 54
e 3 55
e 3 56
e 3 57
e 3 58
e 3 59
e 3 60
e 3 63
e 3 65
e 3 66
e 3 67
e 3 73
e 3 74
e 3 76
e 3 77
e 3 81
e 3 82
e 3 84
e 3 86
e 3 90
e 3 93
e 3 94
e 3 96
e 3 97
e 3 99
e 4 5
e 4 6
e 4 7
e 4 8
e 4 10
e 4 11
e 4 12
e 4 13
e 4 16
e 4 19
e 4 25
e 4 26
e 4 27
e 4 28
e 4 29
e 4 30
e 4 31
e 4 33
e 4 34
e 4 35
e 4 36
e 4 37
e 4 38
e 4 39
e 4 40
e 4 42
e 4 43
e 4 45
e 4 47
e 4 48
e 4 49
e 4 50
e 4 51
e 4 52
e 4 53
e 4 55
e 4 56
e 4 58
e 4 59
e 4 62
e 4 64
e 4 65
e 4 66
e 4 67
e 4 70
e 4 71
e 4 72
e 4 74
e 4 75
e 4 77
e 4 84
e 4 85
e 4 87
e 4 93
e 4 95
e 4 96
e 5 6
e 5 7
e 5 8
e 5 9
e 5 11
e 5 12
e 5 15
e 5 16
e 5 20
e 5 22
e 5 24
e 5 28
e 5 29
e 5 30
e 5 32
e 5 36
e 5 37
e 5 38
e 5 40
e 5 41
e 5 42
e 5 43
e 5 44
e 5 45
e 5 49
e 5 50
e 5 52
e 5 55
e 5 57
e 5 58
e 5 59
e 5 60
e 5 62
e 5 63
e 5 65
e 5 67
e 5 69
e 5 70
e 5 72
e 5 73
e 5 76
e 5 78
e 5 79
e 5 80
e 5 81
e 5 83
e 5 84
e 5 85
e 5 86
e 5 89
e 5 92
e 5 93
e 5 94
e 5 96
e 5 100
e 6 7
e 6 8
e 6 10
e 6 11
e 6 12
e 6 13
e 6 14
e 6 17
e 6 19
e 6 20
e 6 21
e 6 22
e 6 24
e 6 25
e 6 26
e 6 27
e 6 29
e 6 31
e 6 35
e 6 36
e 6 37
e 6 39
e 6 41
e 6 42
e 6 44
e 6 45
e 6 47
e 6 48
e 6 49
e 6 50
e 6 51
e 6 55
e 6 59
e 6 61
e 6 63
e 6 65
e 6 68
e 6 70
e 6 71
e 6 72
e 6 75
e 6 76
e 6 80
e 6 81
e 6 83
e 6 84
e 6 85
e 6 87
e 6 90
e 6 91
e 6 92
e 6 93
e 6 95
e 6 97
e 7 8
e 7 9
e 7 11
e 7 12
e 7 14
e 7 17
e 7 18
e 7 20
e 7 21
e 7 22
e 7 28
e 7 29
e 7 30
e 7 31
e 7 32
e 7 33
e 7 35
e 7 37
e 7 39
e 7 42
e 7 44
e 7 45
e 7 47
e 7 53
e 7 54
e 7 56
e 7 60
e 7 62
e 7 64
e 7 66
e 7 67
e 7 68
e 7 69
e 7 71
e 7 73
e 7 75
e 7 77
e 7 78
e 7 79
e 7 80
e 7 82
e 7 84
e 7 87
e 7 88
e 7 89
e 7 90
e 7 91
e 7 94
e 7 96
e 7 98
e 7 100
e 8 9
e 8 11
e 8 14
e 8 15
e 8 16
e 8 17
e 8 20
e 8 21
e 8 23
e 8 25
e 8 26
e 8 27
e 8 28
e 8 30
e 8 31
e 8 32
e 8 33
e 8 34
e 8 36
e 8 38
e 8 40
e 8 43
e 8 44
e 8 45
e 8 46
e 8 47
e 8 49
e 8 52
e 8 53
e 8 56
e 8 57
e 8 59
e 8 62
e 8 63
e 8 65
e 8 66
e 8 67
e 8 69
e 8 72
e 8 73
e 8 75
e 8 77
e 8 78
e 8 80
e 8 82
e 8 83
e 8 89
e 8 92
e 8 97
e 8 99
e 9 10
e 9 12
e 9 13
e 9 14
e 9 16
e 9 18
e 9 21
e 9 22
e 9 24
e 9 25
e 9 27
e 9 28
e 9 29
e 9 30
e 9 31
e 9 32
e 9 33
e 9 34
e 9 36
e 9 37
e 9 39
e 9 41
e 9 42
e 9 43
e 9 47
e 9 48
e 9 50
e 9 52
e 9 54
e 9 56
e 9 58
e 9 60
e 9 62
e 9 63
e 9 64
e 9 66
e 9 67
e 9 68
e 9 74
e 9 75
e 9 77
e 9 79
e 9 81
e 9 82
e 9 85
e 9 88
e 9 91
e 9 92
e 9 93
e 9 95
e 9 96
e 9 99
e 10 11
e 10 12
e 10 14
e 10 15
e 10 16
e 10 20
e 10 21
e 10 22
e 10 23
e 10 25
e 10 26
e 10 28
e 10 31
e 10 32
e 10 33
e 10 34
e 10 35
e 10 36
e 10 39
e 10 42
e 10 43
e 10 44
e 10 46
e 10 50
e 10 51
e 10 52
e 10 53
e 10 54
e 10 58
e 10 59
e 10 61
e 10 63
e 10 65
e 10 66
e 10 67
e 10 68
e 10 69
e 10 71
e 10 75
e 10 81
e 10 83
e 10 84
e 10 89
e 10 92
e 10 94
e 10 96
e 10 97
e 10 98
e 10 99
e 10 100
e 11 12
e 11 13
e 11 14
e 11 15
e 11 17
e 11 18
e 11 20
e 11 23
e 11 26
e 11 27
e 11 28
e 11 29
e 11 30
e 11 35
e 11 37
e 11 39
e 11 40
e 11 42
e 11 43
e 11 45
e 11 46
e 11 47
e 11 52
e 11 53
e 11 56
e 11 57
e 11 63
e 11 64
e 11 66
e 11 67
e 11 68
e 11 69
e 11 71
e 11 73
e 11 75
e 11 76
e 11 77
e 11 78
e 11 79
e 11 82
e 11 83
e 11 84
e 11 87
e 11 88
e 11 89
e 11 92
e 11 94
e 11 97
e 11 98
e 12 13
e 12 14
e 12 15
e 12 16
e 12 17
e 12 20
e 12 22
e 12 23
e 12 24
e 12 25
e 12 26
e 12 27
e 12 30
e 12 31
e 12 34
e 12 35
e 12 41
e 12 42
e 12 44
e 12 48
e 12 49
e 12 53
e 12 54
e 12 55
e 12 59
e 12 60
e 12 61
e 12 63
e 12 64
e 12 67
e 12 70
e 12 71
e 12 75
e 12 76
e 12 78
e 12 80
e 12 81
e 12 86
e 12 87
e 12 89
e 12 90
e 12 92
e 12 95
e 12 96
e 12 97
e 12 98
e 13 14
e 13 15
e 13 16
e 13 18
e 13 20
e 13 22
e 13 23
e 13 24
e 13 25
e 13 27
e 13 28
e 13 33
e 13 35
e 13 38
e 13 40
e 13 41
e 13 42
e 13 46
e 13 48
e 13 53
e 13 55
e 13 56
e 13 58
e 13 59
e 13 60
e 13 62
e 13 65
e 13 66
e 13 68
e 13 72
e 13 73
e 13 74
e 13 75
e 13 78
e 13 81
e 13 82
e 13 83
e 13 84
e 13 85
e 13 86
e 13 87
e 13 88
e 13 89
e 13 90
e 13 93
e 13 94
e 13 95
e 13 96
e 14 18
e 14 19
e 14 20
e 14 21
e 14 22
e 14 27
e 14 28
e 14 29
e 14 33
e 14 35
e 14 36
e 14 37
e 14 38
e 14 39
e 14 40
e 14 41
e 14 44
e 14 45
e 14 47
e 14 50
e 14 51
e 14 52
e 14 53
e 14 54
e 14 57
e 14 61
e 14 62
e 14 64
e 14 68
e 14 72
e 14 74
e 14 76
e 14 79
e 14 81
e 14 85
e 14 86
e 14 87
e 14 89
e 14 90
e 14 91
e 14 93
e 14 96
e 14 97
e 14 98
e 15 16
e 15 17
e 15 18
e 15 19
e 15 20
e 15 21
e 15 22
e 15 25
e 15 29
e 15 30
e 15 31
e 15 33
e 15 34
e 15 35
e 15 37
e 15 42
e 15 45
e 15 46
e 15 47
e 15 49
e 15 50
e 15 51
e 15 53
e 15 55
e 15 58
e 15 60
e 15 62
e 15 63
e 15 66
e 15 70
e 15 72
e 15 73
e 15 76
e 15 77
e 15 78
e 15 80
e 15 84
e 15 85
e 15 87
e 15 90
e 15 93
e 15 95
e 15 96
e 15 98
e 15 99
e 15 100
e 16 17
e 16 19
e 16 20
e 16 23
e 16 25
e 16 26
e 16 28
e 16 30
e 16 31
e 16 32
e 16 33
e 16 36
e 16 38
e 16 39
e 16 41
e 16 43
e 16 44
e 16 47
e 16 51
e 16 52
e 16 54
e 16 56
e 16 57
e 16 58
e 16 62
e 16 64
e 16 65
e 16 66
e 16 67
e 16 68
e 16 72
e 16 74
e 16 75
e 16 78
e 16 80
e 16 81
e 16 82
e 16 84
e 16 86
e 16 88
e 16 92
e 16 93
e 16 94
e 16 97
e 16 100
e 17 18
e 17 21
e 17 22
e 17 23
e 17 26
e 17 29
e 17 30
e 17 32
e 17 34
e 17 35
e 17 36
e 17 37
e 17 39
e 17 42
e 17 43
e 17 45
e 17 46
e 17 48
e 17 52
e 17 53
e 17 54
e 17 55
e 17 58
e 17 59
e 17 61
e 17 62
e 17 66
e 17 67
e 17 69
e 17 70
e 17 72
e 17 73
e 17 75
e 17 76
e 17 77
e 17 81
e 17 82
e 17 83
e 17 87
e 17 89
e 17 90
e 17 93
e 17 99
e 17 100
e 18 20
e 18 21
e 18 22
e 18 25
e 18 26
e 18 27
e 18 28
e 18 29
e 18 30
e 18 33
e 18 35
e 18 37
e 18 43
e 18 45
e 18 46
e 18 48
e 18 49
e 18 51
e 18 52
e 18 53
e 18 55
e 18 57
e 18 60
e 18 61
e 18 62
e 18 64
e 18 66
e 18 68
e 18 69
e 18 70
e 18 71
e 18 72
e 18 74
e 18 76
e 18 77
e 18 79
e 18 80
e 18 82
e 18 85
e 18 88
e 18 90
e 18 93
e 18 95
e 18 97
e 19 20
e 19 22
e 19 26
e 19 28
e 19 30
e 19 31
e 19 32
e 19 33
e 19 34
e 19 36
e 19 37
e 19 38
e 19 40
e 19 42
e 19 44
e 19 47
e 19 49
e 19 53
e 19 54
e 19 55
e 19 56
e 19 57
e 19 58
e 19 61
e 19 63
e 19 64
e 19 65
e 19 66
e 19 67
e 19 70
e 19 74
e 19 75
e 19 77
e 19 78
e 19 79
e 19 85
e 19 87
e 19 88
e 19 89
e 19 90
e 19 91
e 19 92
e 19 93
e 19 94
e 19 95
e 19 96
e 19 99
e 20 21
e 20 23
e 20 24
e 20 30
e 20 31
e 20 32
e 20 33
e 20 34
e 20 35
e 20 39
e 20 40
e 20 41
e 20 44
e 20 45
e 20 47
e 20 48
e 20 50
e 20 57
e 20 59
e 20 60
e 20 61
e 20 62
e 20 63
e 20 64
e 20 69
e 20 71
e 20 72
e 20 79
e 20 80
e 20 82
e 20 85
e 20 86
e 20 88
e 20 90
e 20 93
e 20 98
e 20 100
e 21 22
e 21 24
e 21 25
e 21 26
e 21 27
e 21 28
e 21 30
e 21 32
e 21 33
e 21 34
e 21 37
e 21 40
e 21 41
e 21 42
e 21 43
e 21 45
e 21 46
e 21 48
e 21 51
e 21 54
e 21 56
e 21 58
e 21 59
e 21 60
e 21 66
e 21 68
e 21 69
e 21 72
e 21 74
e 21 75
e 21 79
e 21 80
e 21 82
e 21 85
e 21 86
e 21 87
e 21 91
e 21 92
e 21 94
e 21 95
e 21 96
e 21 98
e 22 23
e 22 24
e 22 26
e 22 27
e 22 34
e 22 38
e 22 42
e 22 43
e 22 44
e 22 45
e 22 47
e 22 49
e 22 51
e 22 52
e 22 54
e 22 55
e 22 56
e 22 59
e 22 60
e 22 61
e 22 63
e 22 66
e 22 68
e 22 69
e 22 70
e 22 71
e 22 72
e 22 74
e 22 76
e 22 77
e 22 78
e 22 84
e 22 86
e 22 89
e 22 90
e 22 96
e 22 100
e 23 24
e 23 28
e 23 30
e 23 32
e 23 33
e 23 37
e 23 41
e 23 42
e 23 43
e 23 45
e 23 46
e 23 48
e 23 49
e 23 50
e 23 51
e 23 52
e 23 53
e 23 54
e 23 55
e 23 57
e 23 58
e 23 59
e 23 61
e 23 62
e 23 63
e 23 66
e 23 67
e 23 68
e 23 69
e 23 73
e 23 74
e 23 75
e 23 77
e 23 78
e 23 79
e 23 81
e 23 83
e 23 86
e 23 88
e 23 89
e 23 93
e 23 97
e 23 100
e 24 25
e 24 27
e 24 28
e 24 29
e 24 31
e 24 32
e 24 33
e 24 37
e 24 43
e 24 44
e 24 45
e 24 46
e 24 47
e 24 48
e 24 49
e 24 50
e 24 52
e 24 53
e 24 54
e 24 56
e 24 57
e 24 61
e 24 62
e 24 63
e 24 66
e 24 68
e 24 69
e 24 71
e 24 76
e 24 81
e 24 82
e 24 85
e 24 86
e 24 88
e 24 89
e 24 91
e 24 92
e 24 93
e 24 94
e 24 96
e 24 99
e 25 26
e 25 27
e 25 31
e 25 32
e 25 34
e 25 35
e 25 38
e 25 39
e 25 40
e 25 42
e 25 43
e 25 45
e 25 46
e 25 47
e 25 48
e 25 51
e 25 53
e 25 57
e 25 60
e 25 61
e 25 63
e 25 64
e 25 66
e 25 67
e 25 68
e 25 71
e 25 75
e 25 78
e 25 79
e 25 80
e 25 84
e 25 90
e 25 92
e 25 94
e 25 96
e 25 97
e 25 98
e 25 99
e 25 100
e 26 33
e 26 34
e 26 35
e 26 36
e 26 37
e 26 38
e 26 39
e 26 41
e 26 42
e 26 45
e 26 47
e 26 48
e 26 51
e 26 57
e 26 59
e 26 64
e 26 65
e 26 66
e 26 70
e 26 71
e 26 72
e 26 73
e 26 74
e 26 77
e 26 79
e 26 82
e 26 83
e 26 84
e 26 85
e 26 86
e 26 87
e 26 88
e 26 90
e 26 92
e 26 94
e 26 95
e 26 97
e 26 99
e 27 29
e 27 30
e 27 32
e 27 34
e 27 36
e 27 37
e 27 38
e 27 40
e 27 41
e 27 42
e 27 43
e 27 44
e 27 45
e 27 48
e 27 50
e 27 51
e 27 52
e 27 53
e 27 55
e 27 57
e 27 60
e 27 63
e 27 67
e 27 70
e 27 72
e 27 74
e 27 78
e 27 83
e 27 84
e 27 85
e 27 86
e 27 87
e 27 88
e 27 90
e 27 98
e 27 99
e 28 29
e 28 30
e 28 31
e 28 33
e 28 34
e 28 35
e 28 38
e 28 39
e 28 40
e 28 42
e 28 43
e 28 44
e 28 45
e 28 46
e 28 48
e 28 50
e 28 54
e 28 55
e 28 57
e 28 62
e 28 64
e 28 69
e 28 71
e 28 72
e 28 73
e 28 74
e 28 75
e 28 77
e 28 79
e 28 80
e 28 81
e 28 83
e 28 85
e 28 87
e 28 89
e 28 94
e 28 98
e 29 30
e 29 32
e 29 34
e 29 35
e 29 37
e 29 38
e 29 39
e 29 41
e 29 43
e 29 46
e 29 49
e 29 51
e 29 53
e 29 54
e 29 56
e 29 57
e 29 58
e 29 60
e 29 63
e 29 64
e 29 66
e 29 68
e 29 71
e 29 72
e 29 73
e 29 74
e 29 80
e 29 83
e 29 84
e 29 85
e 29 86
e 29 87
e 29 90
e 29 91
e 29 92
e 29 93
e 29 94
e 30 33
e 30 34
e 30 35
e 30 37
e 30 41
e 30 42
e 30 43
e 30 44
e 30 45
e 30 47
e 30 48
e 30 49
e 30 50
e 30 51
e 30 55
e 30 59
e 30 60
e 30 64
e 30 65
e 30 66
e 30 73
e 30 75
e 30 78
e 30 81
e 30 82
e 30 84
e 30 85
e 30 86
e 30 89
e 30 90
e 30 94
e 30 95
e 30 96
e 31 34
e 31 35
e 31 36
e 31 39
e 31 40
e 31 41
e 31 42
e 31 43
e 31 46
e 31 49
e 31 50
e 31 52
e 31 55
e 31 56
e 31 59
e 31 60
e 31 61
e 31 62
e 31 63
e 31 70
e 31 73
e 31 75
e 31 76
e 31 77
e 31 80
e 31 81
e 31 83
e 31 85
e 31 86
e 31 87
e 31 88
e 31 91
e 31 96
e 31 97
e 31 98
e 32 33
e 32 34
e 32 36
e 32 37
e 32 38
e 32 45
e 32 46
e 32 49
e 32 50
e 32 51
e 32 52
e 32 53
e 32 54
e 32 58
e 32 63
e 32 64
e 32 65
e 32 66
e 32 67
e 32 70
e 32 71
e 32 73
e 32 77
e 32 82
e 32 84
e 32 87
e 32 88
e 32 89
e 32 90
e 32 94
e 32 95
e 32 97
e 32 98
e 32 99
e 33 35
e 33 39
e 33 40
e 33 42
e 33 46
e 33 47
e 33 49
e 33 55
e 33 60
e 33 61
e 33 64
e 33 65
e 33 67
e 33 72
e 33 73
e 33 75
e 33 76
e 33 77
e 33 80
e 33 81
e 33 82
e 33 83
e 33 91
e 33 92
e 33 93
e 33 95
e 33 96
e 33 97
e 33 98
e 33 100
e 34 36
e 34 37
e 34 40
e 34 42
e 34 43
e 34 44
e 34 45
e 34 49
e 34 50
e 34 51
e 34 52
e 34 54
e 34 55
e 34 57
e 34 60
e 34 61
e 34 63
e 34 67
e 34 73
e 34 74
e 34 75
e 34 78
e 34 79
e 34 80
e 34 83
e 34 87
e 34 88
e 34 95
e 34 96
e 34 97
e 35 36
e 35 37
e 35 40
e 35 42
e 35 43
e 35 44
e 35 45
e 35 46
e 35 49
e 35 50
e 35 53
e 35 54
e 35 55
e 35 57
e 35 60
e 35 61
e 35 62
e 35 64
e 35 70
e 35 73
e 35 74
e 35 76
e 35 78
e 35 79
e 35 81
e 35 84
e 35 87
e 35 88
e 35 91
e 35 96
e 35 99
e 36 37
e 36 38
e 36 39
e 36 41
e 36 43
e 36 44
e 36 45
e 36 50
e 36 53
e 36 57
e 36 58
e 36 59
e 36 62
e 36 63
e 36 68
e 36 69
e 36 70
e 36 71
e 36 72
e 36 73
e 36 74
e 36 76
e 36 78
e 36 79
e 36 80
e 36 81
e 36 82
e 36 86
e 36 87
e 36 92
e 36 95
e 36 96
e 37 39
e 37 44
e 37 47
e 37 48
e 37 49
e 37 50
e 37 51
e 37 52
e 37 53
e 37 62
e 37 63
e 37 64
e 37 67
e 37 68
e 37 69
e 37 70
e 37 72
e 37 73
e 37 74
e 37 77
e 37 79
e 37 82
e 37 85
e 37 86
e 37 87
e 37 91
e 37 99
e 38 39
e 38 40
e 38 41
e 38 43
e 38 44
e 38 45
e 38 47
e 38 48
e 38 49
e 38 55
e 38 56
e 38 58
e 38 59
e 38 61
e 38 62
e 38 63
e 38 65
e 38 66
e 38 69
e 38 70
e 38 71
e 38 74
e 38 76
e 38 78
e 38 79
e 38 80
e 38 81
e 38 82
e 38 84
e 38 89
e 38 90
e 38 92
e 38 93
e 38 98
e 38 99
e 39 40
e 39 46
e 39 47
e 39 50
e 39 51
e 39 54
e 39 55
e 39 56
e 39 59
e 39 61
e 39 62
e 39 65
e 39 68
e 39 69
e 39 71
e 39 72
e 39 73
e 39 74
e 39 75
e 39 76
e 39 77
e 39 80
e 39 81
e 39 82
e 39 83
e 39 84
e 39 86
e 39 95
e 39 98
e 39 99
e 40 41
e 40 42
e 40 43
e 40 44
e 40 45
e 40 46
e 40 47
e 40 50
e 40 51
e 40 53
e 40 58
e 40 59
e 40 60
e 40 65
e 40 66
e 40 68
e 40 72
e 40 76
e 40 79
e 40 84
e 40 86
e 40 87
e 40 89
e 40 90
e 40 91
e 40 92
e 40 93
e 40 96
e 40 98
e 40 99
e 40 100
e 41 42
e 41 43
e 41 44
e 41 45
e 41 46
e 41 49
e 41 53
e 41 54
e 41 55
e 41 58
e 41 59
e 41 61
e 41 62
e 41 64
e 41 65
e 41 66
e 41 68
e 41 71
e 41 72
e 41 74
e 41 76
e 41 82
e 41 86
e 41 88
e 41 90
e 41 94
e 41 96
e 41 97
e 41 100
e 42 43
e 42 47
e 42 48
e 42 49
e 42 52
e 42 54
e 42 56
e 42 58
e 42 59
e 42 63
e 42 65
e 42 67
e 42 69
e 42 73
e 42 74
e 42 78
e 42 81
e 42 82
e 42 87
e 42 90
e 42 93
e 42 94
e 42 97
e 42 100
e 43 46
e 43 47
e 43 49
e 43 57
e 43 58
e 43 59
e 43 60
e 43 62
e 43 65
e 43 66
e 43 67
e 43 68
e 43 73
e 43 74
e 43 75
e 43 76
e 43 77
e 43 80
e 43 84
e 43 86
e 43 91
e 43 94
e 44 48
e 44 53
e 44 55
e 44 58
e 44 59
e 44 61
e 44 62
e 44 66
e 44 67
e 44 69
e 44 70
e 44 74
e 44 76
e 44 78
e 44 82
e 44 86
e 44 87
e 44 88
e 44 89
e 44 90
e 44 91
e 44 94
e 44 95
e 44 97
e 44 99
e 45 46
e 45 47
e 45 50
e 45 54
e 45 55
e 45 56
e 45 58
e 45 59
e 45 60
e 45 62
e 45 67
e 45 70
e 45 71
e 45 75
e 45 76
e 45 77
e 45 80
e 45 83
e 45 85
e 45 90
e 45 92
e 45 98
e 46 47
e 46 49
e 46 51
e 46 54
e 46 56
e 46 57
e 46 63
e 46 64
e 46 65
e 46 68
e 46 69
e 46 70
e 46 71
e 46 75
e 46 76
e 46 79
e 46 82
e 46 83
e 46 84
e 46 86
e 46 88
e 46 92
e 46 93
e 46 94
e 46 95
e 46 98
e 47 48
e 47 52
e 47 53
e 47 55
e 47 58
e 47 59
e 47 60
e 47 66
e 47 68
e 47 69
e 47 76
e 47 79
e 47 80
e 47 82
e 47 86
e 47 90
e 47 91
e 47 92
e 47 93
e 47 94
e 47 97
e 47 98
e 47 99
e 47 100
e 48 49
e 48 50
e 48 51
e 48 52
e 48 56
e 48 57
e 48 59
e 48 62
e 48 65
e 48 67
e 48 68
e 48 69
e 48 73
e 48 74
e 48 75
e 48 77
e 48 78
e 48 79
e 48 80
e 48 81
e 48 82
e 48 84
e 48 86
e 48 90
e 48 93
e 48 100
e 49 51
e 49 52
e 49 55
e 49 57
e 49 59
e 49 60
e 49 64
e 49 66
e 49 67
e 49 68
e 49 69
e 49 70
e 49 71
e 49 74
e 49 75
e 49 79
e 49 82
e 49 85
e 49 90
e 49 97
e 49 99
e 49 100
e 50 51
e 50 53
e 50 59
e 50 60
e 50 61
e 50 63
e 50 64
e 50 65
e 50 66
e 50 68
e 50 72
e 50 73
e 50 79
e 50 80
e 50 81
e 50 82
e 50 83
e 50 84
e 50 85
e 50 88
e 50 89
e 50 90
e 50 91
e 50 95
e 50 100
e 51 53
e 51 54
e 51 56
e 51 57
e 51 58
e 51 59
e 51 62
e 51 63
e 51 64
e 51 65
e 51 66
e 51 67
e 51 72
e 51 74
e 51 76
e 51 80
e 51 81
e 51 83
e 51 85
e 51 86
e 51 92
e 51 97
e 51 98
e 51 99
e 52 56
e 52 58
e 52 59
e 52 62
e 52 66
e 52 67
e 52 68
e 52 69
e 52 70
e 52 72
e 52 73
e 52 74
e 52 75
e 52 77
e 52 78
e 52 82
e 52 83
e 52 84
e 52 85
e 52 87
e 52 88
e 52 90
e 52 91
e 52 95
e 52 96
e 52 99
e 53 54
e 53 55
e 53 58
e 53 59
e 53 60
e 53 63
e 53 64
e 53 66
e 53 69
e 53 70
e 53 73
e 53 75
e 53 76
e 53 81
e 53 83
e 53 85
e 53 91
e 53 94
e 53 96
e 53 99
e 54 55
e 54 62
e 54 63
e 54 64
e 54 67
e 54 69
e 54 70
e 54 72
e 54 74
e 54 76
e 54 77
e 54 79
e 54 81
e 54 83
e 54 84
e 54 85
e 54 87
e 54 88
e 54 89
e 54 91
e 54 94
e 54 98
e 55 56
e 55 58
e 55 59
e 55 68
e 55 70
e 55 71
e 55 72
e 55 75
e 55 77
e 55 80
e 55 81
e 55 84
e 55 88
e 55 89
e 55 91
e 55 92
e 55 94
e 55 95
e 55 96
e 55 97
e 55 100
e 56 60
e 56 62
e 56 63
e 56 64
e 56 65
e 56 67
e 56 69
e 56 70
e 56 71
e 56 72
e 56 74
e 56 76
e 56 77
e 56 79
e 56 82
e 56 84
e 56 85
e 56 88
e 56 90
e 56 91
e 56 92
e 56 94
e 56 95
e 56 100
e 57 59
e 57 60
e 57 63
e 57 64
e 57 65
e 57 66
e 57 68
e 57 69
e 57 70
e 57 71
e 57 74
e 57 75
e 57 76
e 57 77
e 57 78
e 57 84
e 57 85
e 57 87
e 57 90
e 57 91
e 57 93
e 57 95
e 57 99
e 57 100
e 58 63
e 58 65
e 58 66
e 58 68
e 58 71
e 58 77
e 58 80
e 58 81
e 58 83
e 58 84
e 58 85
e 58 87
e 58 88
e 58 89
e 58 90
e 58 91
e 58 92
e 58 93
e 58 96
e 58 98
e 59 61
e 59 63
e 59 68
e 59 71
e 59 72
e 59 75
e 59 77
e 59 78
e 59 79
e 59 82
e 59 83
e 59 89
e 59 94
e 59 97
e 60 61
e 60 62
e 60 66
e 60 67
e 60 69
e 60 71
e 60 73
e 60 75
e 60 77
e 60 78
e 60 81
e 60 83
e 60 85
e 60 89
e 60 90
e 60 91
e 60 92
e 60 98
e 60 99
e 60 100
e 61 62
e 61 65
e 61 66
e 61 68
e 61 69
e 61 70
e 61 71
e 61 73
e 61 76
e 61 77
e 61 78
e 61 79
e 61 80
e 61 84
e 61 85
e 61 86
e 61 88
e 61 91
e 61 93
e 61 94
e 61 97
e 61 98
e 61 99
e 62 65
e 62 72
e 62 75
e 62 76
e 62 77
e 62 79
e 62 85
e 62 86
e 62 88
e 62 89
e 62 90
e 62 95
e 62 96
e 62 98
e 62 100
e 63 64
e 63 66
e 63 68
e 63 69
e 63 71
e 63 72
e 63 76
e 63 77
e 63 83
e 63 88
e 63 89
e 63 94
e 63 95
e 63 96
e 63 99
e 64 65
e 64 66
e 64 67
e 64 69
e 64 70
e 64 71
e 64 73
e 64 77
e 64 78
e 64 81
e 64 82
e 64 87
e 64 88
e 64 89
e 64 92
e 64 94
e 64 95
e 64 96
e 65 68
e 65 70
e 65 72
e 65 75
e 65 77
e 65 78
e 65 79
e 65 81
e 65 82
e 65 83
e 65 84
e 65 86
e 65 88
e 65 90
e 65 94
e 65 95
e 65 100
e 66 70
e 66 71
e 66 73
e 66 86
e 66 87
e 66 95
e 66 96
e 67 68
e 67 69
e 67 71
e 67 72
e 67 73
e 67 75
e 67 78
e 67 80
e 67 83
e 67 84
e 67 85
e 67 86
e 67 88
e 67 91
e 67 96
e 67 99
e 68 69
e 68 73
e 68 76
e 68 77
e 68 79
e 68 81
e 68 82
e 68 86
e 68 88
e 68 95
e 68 98
e 69 70
e 69 71
e 69 72
e 69 73
e 69 77
e 69 80
e 69 81
e 69 82
e 69 83
e 69 84
e 69 87
e 69 90
e 69 100
e 70 71
e 70 72
e 70 73
e 70 74
e 70 75
e 70 82
e 70 83
e 70 85
e 70 86
e 70 91
e 70 92
e 70 94
e 70 95
e 70 97
e 71 73
e 71 76
e 71 77
e 71 80
e 71 82
e 71 84
e 71 91
e 71 92
e 71 93
e 71 100
e 72 74
e 72 76
e 72 78
e 72 81
e 72 83
e 72 84
e 72 88
e 72 89
e 72 90
e 72 98
e 72 100
e 73 74
e 73 76
e 73 77
e 73 78
e 73 79
e 73 80
e 73 84
e 73 88
e 73 92
e 73 95
e 73 97
e 74 75
e 74 77
e 74 78
e 74 80
e 74 85
e 74 89
e 74 91
e 74 97
e 74 100
e 75 76
e 75 79
e 75 83
e 75 86
e 75 89
e 75 92
e 75 94
e 76 79
e 76 81
e 76 87
e 76 88
e 76 90
e 76 93
e 76 98
e 77 78
e 77 79
e 77 83
e 77 87
e 77 95
e 77 100
e 78 79
e 78 83
e 78 84
e 78 85
e 78 86
e 78 87
e 78 94
e 78 96
e 78 97
e 78 98
e 78 99
e 79 80
e 79 81
e 79 85
e 79 87
e 79 90
e 79 93
e 79 97
e 79 99
e 79 100
e 80 82
e 80 84
e 80 87
e 80 88
e 80 89
e 80 91
e 80 92
e 80 93
e 80 97
e 80 98
e 81 82
e 81 83
e 81 84
e 81 89
e 81 90
e 81 97
e 81 98
e 81 99
e 81 100
e 82 88
e 82 89
e 82 96
e 82 100
e 83 86
e 83 87
e 83 88
e 83 89
e 83 91
e 83 93
e 83 96
e 83 97
e 84 89
e 84 93
e 85 86
e 85 89
e 85 91
e 85 92
e 85 93
e 85 97
e 85 100
e 86 89
e 86 90
e 86 94
e 86 95
e 86 99
e 87 88
e 87 92
e 87 95
e 87 97
e 87 99
e 87 100
e 88 92
e 88 93
e 88 94
e 88 97
e 88 98
e 89 91
e 89 92
e 89 94
e 89 98
e 89 100
e 90 92
e 90 96
e 91 92
e 91 93
e 91 94
e 91 95
e 91 97
e 91 99
e 91 100
e 92 93
e 92 95
e 92 96
e 93 94
e 93 96
e 93 97
e 93 98
e 93 99
e 94 98
e 95 97
e 95 99
e 95 100
e 97 99
e 98 99
e 98 100
n 4 2
n 7 2
n 9 2
n 15 1
n 24 2
n 27 2
n 28 2
n 36 2
n 38 2
n 39 2
n 40 2
n 43 2
n 48 2
n 52 2
n 54 2
n 56 2
n 57 2
n 64 2
n 65 2
n 67 2
n 68 2
n 69 2
n 71 2
n 75 2
n 82 2
n 86 2
n 89 2
n 92 2
n 94 2
n 97 3
